1 -1 -2 0
1 3 -4 0
1 2 -5 0
1 -4 3 0
1 -4 -2 0
1 6 -7 0
1 -8 -9 0
1 -10 -2 0
1 -11 -12 0
1 -11 4 0
1 -13 14 0
1 15 -16 0
1 15 17 0
1 9 18 0
1 -14 3 0
1 14 -19 0
1 -20 12 0
1 -16 -5 0
1 12 13 0
1 -21 -12 0
1 22 23 0
1 22 -18 0
1 -24 25 0
1 -24 26 0
1 -27 28 0
1 -27 -24 0
1 -27 29 0
1 -30 -27 0
1 30 -24 0
1 28 -5 0
1 31 -27 0
1 32 -2 0
1 32 -29 0
1 5 25 0
1 -33 34 0
1 33 30 0
1 34 14 0
1 35 26 0
1 -26 -32 0
1 18 14 0
1 -18 22 0
1 36 -22 0
1 36 -37 0
1 23 -35 0
1 -38 -6 0
1 37 39 0
